NAME : U-A-n44-k6.938181.tour
COMMENT : Cost = 0_938181
COMMENT : Found by LKH [Keld Helsgaun] Wed Sep 13 14:25:34 2017
TYPE : TOUR
DIMENSION : 49
TOUR_SECTION
1
32
9
16
28
29
8
45
27
11
12
17
21
19
36
2
47
18
31
24
41
44
30
48
23
37
10
39
14
15
42
3
46
5
35
40
13
4
26
7
49
20
25
6
22
33
43
38
34
-1
EOF
